param fuelCost:  1  2  3  4  5  6  7  8  9  10  11  12  13  14  15  16  17 :=
1  100  6  2  5  6  4  5  10  9  8  9  9  7  2  10  10  7
2  6  100  6  9  6  10  4  9  2  7  6  10  10  8  6  9  7
3  2  6  100  7  2  4  9  6  5  3  4  9  7  4  7  6  6
4  5  9  7  100  6  8  4  9  2  4  4  8  10  5  2  5  9
5  6  6  2  6  100  4  9  7  7  7  3  5  3  9  4  2  6
6  4  10  4  8  4  100  5  5  7  4  3  5  4  8  5  3  3
7  5  4  9  4  9  5  100  7  8  2  2  3  9  5  8  10  6
8  10  9  6  9  7  5  7  100  4  5  5  4  7  9  9  5  2
9  9  2  5  2  7  7  8  4  100  7  10  9  8  8  9  5  3
10  8  7  3  4  7  4  2  5  7  100  6  9  2  2  4  10  9
11  9  6  4  4  3  3  2  5  10  6  100  6  3  3  9  9  7
12  9  10  9  8  5  5  3  4  9  9  6  100  4  5  2  7  10
13  7  10  7  10  3  4  9  7  8  2  3  4  100  9  10  7  10
14  2  8  4  5  9  8  5  9  8  2  3  5  9  100  7  3  3
15  10  6  7  2  4  5  8  9  9  4  9  2  10  7  100  6  2
16  10  9  6  5  2  3  10  5  5  10  9  7  7  3  6  100  5
17  7  7  6  9  6  3  6  2  3  9  7  10  10  3  2  5  100
;
param timeCost:  1  2  3  4  5  6  7  8  9  10  11  12  13  14  15  16  17 :=
1  100  2  100  100  100  100  100  100  100  100  100  4  2  100  4  100  5
2  2  100  9  100  100  6  6  100  100  100  100  100  4  5  100  100  100
3  100  9  100  10  100  100  10  100  2  6  100  100  100  4  100  100  100
4  100  100  10  100  3  9  9  100  100  100  8  4  100  100  100  100  100
5  100  100  100  3  100  2  10  100  100  2  100  100  100  9  4  100  100
6  100  6  100  9  2  100  7  100  100  100  100  4  100  2  100  100  7
7  100  6  10  9  10  7  100  4  100  2  10  100  100  7  9  100  100
8  100  100  100  100  100  100  4  100  2  100  100  100  3  100  100  8  100
9  100  100  2  100  100  100  100  2  100  6  100  100  100  100  100  100  9
10  100  100  6  100  2  100  2  100  6  100  8  100  100  10  100  100  100
11  100  100  100  8  100  100  10  100  100  8  100  8  100  100  7  100  5
12  4  100  100  4  100  4  100  100  100  100  8  100  8  100  100  100  100
13  2  4  100  100  100  100  100  3  100  100  100  8  100  5  100  100  100
14  100  5  4  100  9  2  7  100  100  10  100  100  5  100  7  100  100
15  4  100  100  100  4  100  9  100  100  100  7  100  100  7  100  9  100
16  100  100  100  100  100  100  100  8  100  100  100  100  100  100  9  100  8
17  5  100  100  100  100  7  100  100  9  100  5  100  100  100  100  8  100
;
param mst:  1  2  3  4  5  6  7  8  9  10  11  12  13  14  15  16  17 :=
1  .  1  0  0  0  0  0  0  0  0  0  1  1  0  1  0  1
2  .  .  0  0  0  0  0  0  0  0  0  0  0  0  0  0  0
3  .  .  .  0  0  0  0  0  1  0  0  0  0  1  0  0  0
4  .  .  .  .  1  0  0  0  0  0  0  0  0  0  0  0  0
5  .  .  .  .  .  1  0  0  0  1  0  0  0  0  0  0  0
6  .  .  .  .  .  .  0  0  0  0  0  0  0  1  0  0  0
7  .  .  .  .  .  .  .  0  0  1  0  0  0  0  0  0  0
8  .  .  .  .  .  .  .  .  1  0  0  0  1  0  0  1  0
9  .  .  .  .  .  .  .  .  .  0  0  0  0  0  0  0  0
10  .  .  .  .  .  .  .  .  .  .  0  0  0  0  0  0  0
11  .  .  .  .  .  .  .  .  .  .  .  0  0  0  0  0  1
12  .  .  .  .  .  .  .  .  .  .  .  .  0  0  0  0  0
13  .  .  .  .  .  .  .  .  .  .  .  .  .  0  0  0  0
14  .  .  .  .  .  .  .  .  .  .  .  .  .  .  0  0  0
15  .  .  .  .  .  .  .  .  .  .  .  .  .  .  .  0  0
16  .  .  .  .  .  .  .  .  .  .  .  .  .  .  .  .  0
17  .  .  .  .  .  .  .  .  .  .  .  .  .  .  .  .  .
;
param mstHalf:  1  2  3  4  5  6  7  8  9  10  11  12  13  14  15  16  17 :=
1  .  1  0  0  0  0  0  0  0  0  0  0  1  0  0  0  0
2  .  .  0  0  0  0  0  0  0  0  0  0  0  0  0  0  0
3  .  .  .  0  0  0  0  0  1  0  0  0  0  0  0  0  0
4  .  .  .  .  0  0  0  0  0  0  0  0  0  0  0  0  0
5  .  .  .  .  .  1  0  0  0  1  0  0  0  0  0  0  0
6  .  .  .  .  .  .  0  0  0  0  0  0  0  1  0  0  0
7  .  .  .  .  .  .  .  0  0  1  0  0  0  0  0  0  0
8  .  .  .  .  .  .  .  .  1  0  0  0  0  0  0  0  0
9  .  .  .  .  .  .  .  .  .  0  0  0  0  0  0  0  0
10  .  .  .  .  .  .  .  .  .  .  0  0  0  0  0  0  0
11  .  .  .  .  .  .  .  .  .  .  .  0  0  0  0  0  0
12  .  .  .  .  .  .  .  .  .  .  .  .  0  0  0  0  0
13  .  .  .  .  .  .  .  .  .  .  .  .  .  0  0  0  0
14  .  .  .  .  .  .  .  .  .  .  .  .  .  .  0  0  0
15  .  .  .  .  .  .  .  .  .  .  .  .  .  .  .  0  0
16  .  .  .  .  .  .  .  .  .  .  .  .  .  .  .  .  0
17  .  .  .  .  .  .  .  .  .  .  .  .  .  .  .  .  .
;
param mstEdges:  1  2 :=
1  1  2
2  1  13
3  3  9
4  5  6
5  5  10
6  6  14
7  7  10
8  8  9
9  4  5
10  8  13
11  1  12
12  1  15
13  3  14
14  1  17
15  11  17
16  8  16
;
